Gurobi Optimizer version 9.1.2 build v9.1.2rc0 (linux64)
Thread count: 36 physical cores, 72 logical processors, using up to 32 threads
Optimize a model with 12 rows, 57 columns and 590 nonzeros
Model fingerprint: 0xf32eec78
Model has 47 quadratic constraints
Coefficient statistics:
  Matrix range     [2e-05, 3e+00]
  QMatrix range    [1e+00, 1e+00]
  QLMatrix range   [1e+00, 1e+00]
  Objective range  [8e-03, 7e-01]
  Bounds range     [1e+00, 1e+00]
  RHS range        [1e+00, 1e+00]
Presolve removed 9 rows and 0 columns

Continuous model is non-convex -- solving as a MIP.

Presolve removed 9 rows and 0 columns
Presolve time: 0.00s
Presolved: 189 rows, 57 columns, 443 nonzeros
Presolved model has 47 bilinear constraint(s)
Variable types: 57 continuous, 0 integer (0 binary)

Root relaxation: objective -1.743721e+00, 44 iterations, 0.00 seconds

    Nodes    |    Current Node    |     Objective Bounds      |     Work
 Expl Unexpl |  Obj  Depth IntInf | Incumbent    BestBd   Gap | It/Node Time

     0     0   -1.74372    0   38          -   -1.74372      -     -    0s
H    0     0                       0.6147548   -1.74372   384%     -    0s
     0     0   -1.64739    0    1    0.61475   -1.64739   368%     -    0s
H    0     0                      -1.6450460   -1.64739  0.14%     -    0s
     0     0     cutoff    0        -1.64505   -1.64505  0.00%     -    0s

Cutting planes:
  RLT: 25
  BQP: 3

Explored 1 nodes (76 simplex iterations) in 0.01 seconds
Thread count was 32 (of 72 available processors)

Solution count 2: -1.64505 0.614755 
No other solutions better than -1.64505

Optimal solution found (tolerance 1.00e-04)
Best objective -1.645045978473e+00, best bound -1.645045978473e+00, gap 0.0000%

User-callback calls 78, time in user-callback 0.00 sec
Gurobi Optimizer version 9.1.2 build v9.1.2rc0 (linux64)
Thread count: 36 physical cores, 72 logical processors, using up to 32 threads
Optimize a model with 24 rows, 125 columns and 2580 nonzeros
Model fingerprint: 0x2809dba6
Model has 105 quadratic constraints
Coefficient statistics:
  Matrix range     [5e-06, 5e+01]
  QMatrix range    [1e+00, 1e+00]
  QLMatrix range   [1e+00, 1e+00]
  Objective range  [9e-03, 9e-01]
  Bounds range     [1e+00, 1e+00]
  RHS range        [1e+00, 1e+00]
Presolve removed 10 rows and 0 columns

Continuous model is non-convex -- solving as a MIP.

Presolve removed 10 rows and 0 columns
Presolve time: 0.00s
Presolved: 429 rows, 125 columns, 2142 nonzeros
Presolved model has 105 bilinear constraint(s)
Variable types: 125 continuous, 0 integer (0 binary)

Root relaxation: objective -3.559857e+00, 144 iterations, 0.00 seconds

    Nodes    |    Current Node    |     Objective Bounds      |     Work
 Expl Unexpl |  Obj  Depth IntInf | Incumbent    BestBd   Gap | It/Node Time

     0     0   -3.55986    0   95          -   -3.55986      -     -    0s
H    0     0                      -1.3207697   -3.55986   170%     -    0s
     0     0   -3.15210    0   72   -1.32077   -3.15210   139%     -    0s
H    0     0                      -1.6142881   -3.15210  95.3%     -    0s
     0     0   -3.12929    0   42   -1.61429   -3.12929  93.8%     -    0s
     0     0   -3.06702    0   72   -1.61429   -3.06702  90.0%     -    0s
H    0     0                      -1.7487935   -3.06702  75.4%     -    0s
     0     0   -3.06059    0   72   -1.74879   -3.06059  75.0%     -    0s
     0     0   -3.04613    0   72   -1.74879   -3.04613  74.2%     -    0s
H    0     0                      -1.9925776   -3.04613  52.9%     -    0s
     0     0   -3.04359    0   72   -1.99258   -3.04359  52.7%     -    0s
     0     0   -3.03631    0   84   -1.99258   -3.03631  52.4%     -    0s
     0     0   -3.03631    0   84   -1.99258   -3.03631  52.4%     -    0s
     0     0   -3.03585    0   72   -1.99258   -3.03585  52.4%     -    0s
     0     0   -3.03576    0   72   -1.99258   -3.03576  52.4%     -    0s
     0     0   -3.03576    0   72   -1.99258   -3.03576  52.4%     -    0s
H    0     0                      -2.4249934   -3.03576  25.2%     -    0s
H    0     0                      -2.5143135   -3.03576  20.7%     -    0s
     0     2   -3.03576    0   72   -2.51431   -3.03576  20.7%     -    0s
*  601   418              24      -2.6245950   -2.81224  7.15%  25.7    0s
* 1012   462              23      -2.6257531   -2.77549  5.70%  20.1    0s
* 1031   462              19      -2.6548335   -2.77549  4.54%  19.9    0s
* 1109   283              22      -2.6549276   -2.77549  4.54%  19.1    0s
* 1252   283              18      -2.6550801   -2.77549  4.54%  17.7    0s
* 1253   283              18      -2.6550899   -2.77549  4.53%  17.6    0s
* 1318   283              17      -2.6575204   -2.77549  4.44%  17.1    0s
* 1539   190              19      -2.6580969   -2.68645  1.07%  15.3    0s
* 1599   190              18      -2.6580972   -2.68645  1.07%  14.9    0s
* 1840     0              16      -2.6580979   -2.68645  1.07%  13.2    0s

Cutting planes:
  RLT: 43
  BQP: 6
  PSD: 15

Explored 1993 nodes (24837 simplex iterations) in 0.61 seconds
Thread count was 32 (of 72 available processors)

Solution count 10: -2.6581 -2.6581 -2.6581 ... -2.62459
No other solutions better than -2.6581

Optimal solution found (tolerance 1.00e-04)
Best objective -2.658097896176e+00, best bound -2.658097896176e+00, gap 0.0000%

User-callback calls 4255, time in user-callback 0.00 sec



objective value: -2.6580978961757227
objective bound: -2.6580978961757227
x_opt: [0.0, 0.0, 1.0, 0.0, 1.0, 0.671554682789035, 1.0, 1.0, 1.0, 0.0, 0.0, 0.19782110161342803, 0.0, 0.0, 0.0, 0.49405417179526423, 0.0, 0.0, 0.005517301964108607, 0.0]
GUROBI solution time: 0.614717960357666




